&FORCE_EVAL
   METHOD QUICKSTEP
   STRESS_TENSOR ANALYTICAL
   &SUBSYS
      &KIND O
         ELEMENT O
         POTENTIAL GTH-PBE-q6
         BASIS_SET TZV2P-MOLOPT-PBE-GTH-q6
      &END KIND
      &KIND Mg
         ELEMENT Mg
         POTENTIAL GTH-PBE-q10
         BASIS_SET TZV2P-MOLOPT-PBE-GTH-q10
      &END KIND
      &KIND C
         ELEMENT C
         POTENTIAL GTH-PBE-q4
         BASIS_SET TZV2P-MOLOPT-PBE-GTH-q4
      &END KIND
      &KIND H
         ELEMENT H
         POTENTIAL GTH-PBE-q1
         BASIS_SET TZV2P-MOLOPT-PBE-GTH-q1
      &END KIND
      &COORD
         SCALED .TRUE.
         Mg     0.314860    0.956450    0.471890
         Mg     0.376883    0.025077    0.138557
         Mg     0.308257    0.018473    0.805223
         Mg     0.351807    0.376883    0.861443
         Mg     0.289783    0.308257    0.194777
         Mg     0.358410    0.314860    0.528110
         Mg     0.981527    0.289783    0.805223
         Mg     0.043550    0.358410    0.471890
         Mg     0.974923    0.351807    0.138557
         Mg     0.018473    0.710217    0.194777
         Mg     0.956450    0.641590    0.528110
         Mg     0.025077    0.648193    0.861443
         Mg     0.648193    0.623117    0.138557
         Mg     0.710217    0.691743    0.805223
         Mg     0.641590    0.685140    0.471890
         Mg     0.685140    0.043550    0.528110
         Mg     0.623117    0.974923    0.861443
         Mg     0.691743    0.981527    0.194777
         H      0.475303    0.973927    0.145847
         H      0.359407    0.168043    0.812513
         H      0.165290    0.858030    0.479180
         H      0.191363    0.359407    0.187487
         H      0.307260    0.165290    0.520820
         H      0.501377    0.475303    0.854153
         H      0.141970    0.307260    0.479180
         H      0.026073    0.501377    0.145847
         H      0.831957    0.191363    0.812513
         H      0.858030    0.692740    0.520820
         H      0.973927    0.498623    0.854153
         H      0.168043    0.808637    0.187487
         H      0.808637    0.640593    0.812513
         H      0.692740    0.834710    0.479180
         H      0.498623    0.524697    0.145847
         H      0.524697    0.026073    0.854153
         H      0.640593    0.831957    0.187487
         H      0.834710    0.141970    0.520820
         C      0.420867    0.014203    0.760363
         C      0.319130    0.073330    0.427030
         C      0.260003    0.912467    0.093697
         C      0.245800    0.319130    0.572970
         C      0.347537    0.260003    0.906303
         C      0.406663    0.420867    0.239637
         C      0.459557    0.005403    0.624163
         C      0.327930    0.120820    0.290830
         C      0.212513    0.873777    0.957497
         C      0.207110    0.327930    0.709170
         C      0.338737    0.212513    0.042503
         C      0.454153    0.459557    0.375837
         C      0.444073    0.989947    0.421567
         C      0.343387    0.120793    0.088233
         C      0.212540    0.889260    0.754900
         C      0.222593    0.343387    0.911767
         C      0.323280    0.212540    0.245100
         C      0.454127    0.444073    0.578433
         C      0.485743    0.985377    0.302247
         C      0.347957    0.167033    0.968913
         C      0.166300    0.847590    0.635580
         C      0.180923    0.347957    0.031087
         C      0.318710    0.166300    0.364420
         C      0.500367    0.485743    0.697753
         C      0.087533    0.347537    0.093697
         C      0.985797    0.406663    0.760363
         C      0.926670    0.245800    0.427030
         C      0.912467    0.652463    0.906303
         C      0.014203    0.593337    0.239637
         C      0.073330    0.754200    0.572970
         C      0.126223    0.338737    0.957497
         C      0.994597    0.454153    0.624163
         C      0.879180    0.207110    0.290830
         C      0.873777    0.661263    0.042503
         C      0.005403    0.545847    0.375837
         C      0.120820    0.792890    0.709170
         C      0.110740    0.323280    0.754900
         C      0.010053    0.454127    0.421567
         C      0.879207    0.222593    0.088233
         C      0.889260    0.676720    0.245100
         C      0.989947    0.545873    0.578433
         C      0.120793    0.777407    0.911767
         C      0.152410    0.318710    0.635580
         C      0.014623    0.500367    0.302247
         C      0.832967    0.180923    0.968913
         C      0.847590    0.681290    0.364420
         C      0.985377    0.499633    0.697753
         C      0.167033    0.819077    0.031087
         C      0.754200    0.680870    0.427030
         C      0.652463    0.739997    0.093697
         C      0.593337    0.579133    0.760363
         C      0.579133    0.985797    0.239637
         C      0.680870    0.926670    0.572970
         C      0.739997    0.087533    0.906303
         C      0.792890    0.672070    0.290830
         C      0.661263    0.787487    0.957497
         C      0.545847    0.540443    0.624163
         C      0.540443    0.994597    0.375837
         C      0.672070    0.879180    0.709170
         C      0.787487    0.126223    0.042503
         C      0.777407    0.656613    0.088233
         C      0.676720    0.787460    0.754900
         C      0.545873    0.555927    0.421567
         C      0.555927    0.010053    0.578433
         C      0.656613    0.879207    0.911767
         C      0.787460    0.110740    0.245100
         C      0.819077    0.652043    0.968913
         C      0.681290    0.833700    0.635580
         C      0.499633    0.514257    0.302247
         C      0.514257    0.014623    0.697753
         C      0.652043    0.832967    0.031087
         C      0.833700    0.152410    0.364420
         O      0.368907    0.005003    0.693713
         O      0.328330    0.030570    0.360380
         O      0.302763    0.964427    0.027047
         O      0.297760    0.328330    0.639620
         O      0.338337    0.302763    0.972953
         O      0.363903    0.368907    0.306287
         O      0.436187    0.030483    0.943533
         O      0.302850    0.072370    0.610200
         O      0.260963    0.897147    0.276867
         O      0.230480    0.302850    0.389800
         O      0.363817    0.260963    0.723133
         O      0.405703    0.436187    0.056467
         O      0.391283    0.979557    0.340497
         O      0.353777    0.078393    0.007163
         O      0.254940    0.942050    0.673830
         O      0.275383    0.353777    0.992837
         O      0.312890    0.254940    0.326170
         O      0.411727    0.391283    0.659503
         O      0.035573    0.338337    0.027047
         O      0.994997    0.363903    0.693713
         O      0.969430    0.297760    0.360380
         O      0.964427    0.661663    0.972953
         O      0.005003    0.636097    0.306287
         O      0.030570    0.702240    0.639620
         O      0.102853    0.363817    0.276867
         O      0.969517    0.405703    0.943533
         O      0.927630    0.230480    0.610200
         O      0.897147    0.636183    0.723133
         O      0.030483    0.594297    0.056467
         O      0.072370    0.769520    0.389800
         O      0.057950    0.312890    0.673830
         O      0.020443    0.411727    0.340497
         O      0.921607    0.275383    0.007163
         O      0.942050    0.687110    0.326170
         O      0.979557    0.588273    0.659503
         O      0.078393    0.724617    0.992837
         O      0.702240    0.671670    0.360380
         O      0.661663    0.697237    0.027047
         O      0.636097    0.631093    0.693713
         O      0.631093    0.994997    0.306287
         O      0.671670    0.969430    0.639620
         O      0.697237    0.035573    0.972953
         O      0.769520    0.697150    0.610200
         O      0.636183    0.739037    0.276867
         O      0.594297    0.563813    0.943533
         O      0.563813    0.969517    0.056467
         O      0.697150    0.927630    0.389800
         O      0.739037    0.102853    0.723133
         O      0.724617    0.646223    0.007163
         O      0.687110    0.745060    0.673830
         O      0.588273    0.608717    0.340497
         O      0.608717    0.020443    0.659503
         O      0.646223    0.921607    0.992837
         O      0.745060    0.057950    0.326170
      &END COORD
      &CELL
         ABC 26.1359 26.1359 6.942
         ALPHA_BETA_GAMMA 90.0 90.0 120.0
         PERIODIC XYZ
      &END CELL
   &END SUBSYS
   &PRINT
      &STRESS_TENSOR ON
      &END STRESS_TENSOR
      &FORCES ON
         FILENAME forces
      &END FORCES
   &END PRINT
   &DFT
      CHARGE 0
      MULTIPLICITY 1
      BASIS_SET_FILE_NAME BASIS_MOLOPT
      BASIS_SET_FILE_NAME BASIS_MOLOPT_UZH
      POTENTIAL_FILE_NAME GTH_POTENTIALS
      &XC
         &XC_FUNCTIONAL PBE
         &END XC_FUNCTIONAL
      &END XC
      &SCF
         SCF_GUESS ATOMIC
         MAX_SCF 50
         EPS_SCF 1e-07
         ADDED_MOS 80
         &SMEAR
            METHOD FERMI_DIRAC
            ELECTRONIC_TEMPERATURE 300.0
         &END SMEAR
         &OUTER_SCF
            MAX_SCF 10
            EPS_SCF 1e-07
         &END OUTER_SCF
         &MIXING
            METHOD DIRECT_P_MIXING
            ALPHA 0.2
         &END MIXING
      &END SCF
      &PRINT
         &E_DENSITY_CUBE ON
            FILENAME valence_density
            STRIDE 1
         &END E_DENSITY_CUBE
         &MULLIKEN OFF
         &END MULLIKEN
         &LOWDIN OFF
         &END LOWDIN
         &HIRSHFELD OFF
         &END HIRSHFELD
      &END PRINT
      &MGRID
         CUTOFF 1050.0
         NGRIDS 5
         REL_CUTOFF 60
      &END MGRID
      &QS
         EPS_DEFAULT 1e-07
      &END QS
   &END DFT
&END FORCE_EVAL
&GLOBAL
   PROJECT_NAME MgMOF-74
   RUN_TYPE ENERGY
   PREFERRED_DIAG_LIBRARY SCALAPACK
&END GLOBAL
